Perovskite Stacking Fault
1.000000000000000
    8.896070915630840    0.000000000000000    0.000000000000000
    4.448035457815420    7.704223406804198    0.000000000000000
    0.000000000000000    0.000000000000000    65.372503376728488
   Cs   Sn    I
    18    18    54
direct
0.000000000000000    0.000000000000000    0.000000000000000
0.333333333333333    0.333333333333333    0.055555555555556
1.000000000000000    1.000000000000000    0.111111111111111
1.333333333333333    1.333333333333333    0.166666666666667
2.000000000000000    2.000000000000000    0.222222222222222
2.333333333333333    2.333333333333333    0.277777777777778
2.000000000000000    2.000000000000000    0.333333333333333
2.333333333333333    2.333333333333333    0.388888888888889
3.000000000000000    3.000000000000000    0.444444444444444
3.666666666666667    3.666666666666667    0.500000000000000
3.333333333333333    3.333333333333333    0.555555555555556
3.666666666666667    3.666666666666667    0.611111111111111
4.333333333333333    4.333333333333333    0.666666666666667
4.666666666666666    4.666666666666666    0.722222222222222
5.333333333333333    5.333333333333333    0.777777777777778
5.666666666666667    5.666666666666667    0.833333333333333
5.333333333333333    5.333333333333333    0.888888888888889
5.666666666666666    5.666666666666666    0.944444444444444
0.666666666666667    0.666666666666667    0.027777777777778
0.666666666666667    0.666666666666667    0.083333333333333
0.666666666666667    0.666666666666667    0.138888888888889
1.666666666666667    1.666666666666667    0.194444444444444
1.666666666666667    1.666666666666667    0.250000000000000
1.666666666666667    1.666666666666667    0.305555555555556
2.666666666666667    2.666666666666667    0.361111111111111
2.666666666666666    2.666666666666666    0.416666666666667
3.333333333333333    3.333333333333333    0.472222222222222
4.000000000000000    4.000000000000000    0.527777777777778
4.000000000000000    4.000000000000000    0.583333333333333
4.000000000000000    4.000000000000000    0.638888888888889
4.000000000000000    4.000000000000000    0.694444444444444
5.000000000000000    5.000000000000000    0.750000000000000
5.000000000000000    5.000000000000000    0.805555555555555
5.000000000000000    5.000000000000000    0.861111111111111
6.000000000000000    6.000000000000000    0.916666666666667
6.333333333333333    6.333333333333333    0.972222222222222
0.500000000000000    0.000000000000000    0.000000000000000
0.833333333333333    0.333333333333333    0.055555555555556
1.500000000000000    1.000000000000000    0.111111111111111
1.833333333333333    1.333333333333333    0.166666666666667
2.500000000000000    2.000000000000000    0.222222222222222
2.833333333333333    2.333333333333333    0.277777777777778
2.500000000000000    2.000000000000000    0.333333333333333
2.833333333333333    2.333333333333333    0.388888888888889
3.500000000000000    3.000000000000000    0.444444444444444
4.166666666666667    3.666666666666667    0.500000000000000
3.833333333333333    3.333333333333333    0.555555555555556
4.166666666666666    3.666666666666667    0.611111111111111
4.833333333333333    4.333333333333333    0.666666666666667
5.166666666666666    4.666666666666666    0.722222222222222
5.833333333333333    5.333333333333333    0.777777777777778
6.166666666666667    5.666666666666667    0.833333333333333
5.833333333333333    5.333333333333333    0.888888888888889
6.166666666666666    5.666666666666666    0.944444444444444
0.000000000000000    0.500000000000000    0.000000000000000
0.333333333333333    0.833333333333333    0.055555555555556
1.000000000000000    1.500000000000000    0.111111111111111
1.333333333333333    1.833333333333333    0.166666666666667
2.000000000000000    2.500000000000000    0.222222222222222
2.333333333333333    2.833333333333333    0.277777777777778
2.000000000000000    2.500000000000000    0.333333333333333
2.333333333333333    2.833333333333333    0.388888888888889
3.000000000000000    3.500000000000000    0.444444444444444
3.666666666666667    4.166666666666667    0.500000000000000
3.333333333333333    3.833333333333333    0.555555555555556
3.666666666666667    4.166666666666666    0.611111111111111
4.333333333333333    4.833333333333333    0.666666666666667
4.666666666666666    5.166666666666666    0.722222222222222
5.333333333333333    5.833333333333333    0.777777777777778
5.666666666666667    6.166666666666667    0.833333333333333
5.333333333333333    5.833333333333333    0.888888888888889
5.666666666666666    6.166666666666666    0.944444444444444
0.500000000000000    0.500000000000000    0.000000000000000
0.833333333333333    0.833333333333333    0.055555555555556
1.500000000000000    1.500000000000000    0.111111111111111
1.833333333333333    1.833333333333333    0.166666666666667
2.500000000000000    2.500000000000000    0.222222222222222
2.833333333333333    2.833333333333333    0.277777777777778
2.500000000000000    2.500000000000000    0.333333333333333
2.833333333333333    2.833333333333333    0.388888888888889
3.500000000000000    3.500000000000000    0.444444444444444
4.166666666666667    4.166666666666667    0.500000000000000
3.833333333333333    3.833333333333333    0.555555555555556
4.166666666666666    4.166666666666666    0.611111111111111
4.833333333333333    4.833333333333333    0.666666666666667
5.166666666666666    5.166666666666666    0.722222222222222
5.833333333333333    5.833333333333333    0.777777777777778
6.166666666666667    6.166666666666667    0.833333333333333
5.833333333333333    5.833333333333333    0.888888888888889
6.166666666666666    6.166666666666666    0.944444444444444
