CsPbI3
   1.00000000000000
     6.2904720703589856    0.0000000000000000    0.0000000000000000
     0.0000000000000000    6.2904720703589856    0.0000000000000000
     0.0000000000000000    0.0000000000000000    6.2904720703589856
   Cs   Sn   I
     1     1     3
Direct
  0.0000000000000000  0.0000000000000000  0.0000000000000000
  0.5000000000000000  0.5000000000000000  0.5000000000000000
  0.0000000000000000  0.5000000000000000  0.5000000000000000
  0.5000000000000000  0.0000000000000000  0.5000000000000000
  0.5000000000000000  0.5000000000000000  0.0000000000000000