Perovskite Stacking Fault
1.000000000000000
    8.896070915630840    0.000000000000000    0.000000000000000
    4.448035457815420    7.704223406804198    0.000000000000000
    0.000000000000000    0.000000000000000    39.949863174667406
   Cs   Sn    I
    11    11    33
direct
0.000000000000000    0.000000000000000    0.000000000000000
0.333333333333333    0.333333333333333    0.090909090909091
0.666666666666667    0.666666666666667    0.181818181818182
1.000000000000000    1.000000000000000    0.272727272727273
1.333333333333333    1.333333333333333    0.363636363636364
1.666666666666667    1.666666666666667    0.454545454545455
2.000000000000000    2.000000000000000    0.545454545454545
2.333333333333333    2.333333333333333    0.636363636363636
2.666666666666667    2.666666666666667    0.727272727272727
3.000000000000000    3.000000000000000    0.818181818181818
3.666666666666667    3.666666666666667    0.909090909090909
0.666666666666667    0.666666666666667    0.045454545454545
1.000000000000000    1.000000000000000    0.136363636363636
1.333333333333333    1.333333333333333    0.227272727272727
1.666666666666667    1.666666666666667    0.318181818181818
2.000000000000000    2.000000000000000    0.409090909090909
2.333333333333333    2.333333333333333    0.500000000000000
2.666666666666667    2.666666666666667    0.590909090909091
3.000000000000000    3.000000000000000    0.681818181818182
3.333333333333333    3.333333333333333    0.772727272727273
3.333333333333333    3.333333333333333    0.863636363636364
3.333333333333333    3.333333333333333    0.954545454545455
0.500000000000000    0.000000000000000    0.000000000000000
0.833333333333333    0.333333333333333    0.090909090909091
1.166666666666667    0.666666666666667    0.181818181818182
1.500000000000000    1.000000000000000    0.272727272727273
1.833333333333333    1.333333333333333    0.363636363636364
2.166666666666667    1.666666666666667    0.454545454545455
2.500000000000000    2.000000000000000    0.545454545454545
2.833333333333333    2.333333333333333    0.636363636363636
3.166666666666667    2.666666666666667    0.727272727272727
3.500000000000000    3.000000000000000    0.818181818181818
4.166666666666666    3.666666666666667    0.909090909090909
0.000000000000000    0.500000000000000    0.000000000000000
0.333333333333333    0.833333333333333    0.090909090909091
0.666666666666667    1.166666666666667    0.181818181818182
1.000000000000000    1.500000000000000    0.272727272727273
1.333333333333333    1.833333333333333    0.363636363636364
1.666666666666667    2.166666666666667    0.454545454545455
2.000000000000000    2.500000000000000    0.545454545454545
2.333333333333333    2.833333333333333    0.636363636363636
2.666666666666667    3.166666666666667    0.727272727272727
3.000000000000000    3.500000000000000    0.818181818181818
3.666666666666667    4.166666666666666    0.909090909090909
0.500000000000000    0.500000000000000    0.000000000000000
0.833333333333333    0.833333333333333    0.090909090909091
1.166666666666667    1.166666666666667    0.181818181818182
1.500000000000000    1.500000000000000    0.272727272727273
1.833333333333333    1.833333333333333    0.363636363636364
2.166666666666667    2.166666666666667    0.454545454545455
2.500000000000000    2.500000000000000    0.545454545454545
2.833333333333333    2.833333333333333    0.636363636363636
3.166666666666667    3.166666666666667    0.727272727272727
3.500000000000000    3.500000000000000    0.818181818181818
4.166666666666666    4.166666666666666    0.909090909090909
