Perovskite Stacking Fault
1.000000000000000
    8.896070915630840    0.000000000000000    0.000000000000000
    4.448035457815420    7.704223406804198    0.000000000000000
    0.000000000000000    0.000000000000000    43.581668917818995
   Cs   Sn    I
    12    12    36
direct
0.000000000000000    0.000000000000000    0.000000000000000
0.333333333333333    0.333333333333333    0.083333333333333
1.000000000000000    1.000000000000000    0.166666666666667
1.666666666666667    1.666666666666667    0.250000000000000
1.333333333333333    1.333333333333333    0.333333333333333
2.000000000000000    2.000000000000000    0.416666666666667
1.666666666666667    1.666666666666667    0.500000000000000
2.333333333333333    2.333333333333333    0.583333333333333
2.666666666666667    2.666666666666667    0.666666666666667
3.000000000000000    3.000000000000000    0.750000000000000
3.333333333333333    3.333333333333333    0.833333333333333
3.666666666666667    3.666666666666667    0.916666666666667
0.666666666666667    0.666666666666667    0.041666666666667
0.666666666666667    0.666666666666667    0.125000000000000
1.333333333333333    1.333333333333333    0.208333333333333
2.000000000000000    2.000000000000000    0.291666666666667
2.666666666666667    2.666666666666667    0.375000000000000
2.333333333333333    2.333333333333333    0.458333333333333
2.000000000000000    2.000000000000000    0.541666666666667
3.000000000000000    3.000000000000000    0.625000000000000
3.333333333333333    3.333333333333333    0.708333333333333
3.666666666666667    3.666666666666667    0.791666666666667
4.000000000000000    4.000000000000000    0.875000000000000
4.333333333333333    4.333333333333333    0.958333333333333
0.500000000000000    0.000000000000000    0.000000000000000
0.833333333333333    0.333333333333333    0.083333333333333
1.500000000000000    1.000000000000000    0.166666666666667
2.166666666666667    1.666666666666667    0.250000000000000
1.833333333333333    1.333333333333333    0.333333333333333
2.500000000000000    2.000000000000000    0.416666666666667
2.166666666666667    1.666666666666667    0.500000000000000
2.833333333333333    2.333333333333333    0.583333333333333
3.166666666666667    2.666666666666667    0.666666666666667
3.500000000000000    3.000000000000000    0.750000000000000
3.833333333333333    3.333333333333333    0.833333333333333
4.166666666666666    3.666666666666667    0.916666666666667
0.000000000000000    0.500000000000000    0.000000000000000
0.333333333333333    0.833333333333333    0.083333333333333
1.000000000000000    1.500000000000000    0.166666666666667
1.666666666666667    2.166666666666667    0.250000000000000
1.333333333333333    1.833333333333333    0.333333333333333
2.000000000000000    2.500000000000000    0.416666666666667
1.666666666666667    2.166666666666667    0.500000000000000
2.333333333333333    2.833333333333333    0.583333333333333
2.666666666666667    3.166666666666667    0.666666666666667
3.000000000000000    3.500000000000000    0.750000000000000
3.333333333333333    3.833333333333333    0.833333333333333
3.666666666666667    4.166666666666666    0.916666666666667
0.500000000000000    0.500000000000000    0.000000000000000
0.833333333333333    0.833333333333333    0.083333333333333
1.500000000000000    1.500000000000000    0.166666666666667
2.166666666666667    2.166666666666667    0.250000000000000
1.833333333333333    1.833333333333333    0.333333333333333
2.500000000000000    2.500000000000000    0.416666666666667
2.166666666666667    2.166666666666667    0.500000000000000
2.833333333333333    2.833333333333333    0.583333333333333
3.166666666666667    3.166666666666667    0.666666666666667
3.500000000000000    3.500000000000000    0.750000000000000
3.833333333333333    3.833333333333333    0.833333333333333
4.166666666666666    4.166666666666666    0.916666666666667
